NAME: rd100
DIMENSION: 17
EDGE_WEIGHT_TYPE: EUC_2D
NODE_COORD_SECTION
1 144 863
2 882 1
3 545 735
4 503 876
5 205 345
6 702 577
7 147 164
8 135 808
9 629 977
10 675 731
11 314 299
12 446 982
13 355 765
14 398 976
15 273 854
16 666 312
17 877 925
ACCEPTED_PROBABILITIES
0.0
0.89
0.25
0.63
0.45
0.45
0.11
0.42
0.93
0.1
0.53
0.84
0.1
0.9
0.88
0.34
0.47
OUTSOURCING_COSTS
0.0
50.66
47.16
60.77
32.15
8.85
9.23
49.12
12.06
53.89
53.53
23.83
39.64
70.87
40.4
17.51
30.78
